\ This file has been generated by DOcplex
\ ENCODING=ISO-8859-1
\Problem name: random_problem.lp

Minimize
 obj: 5.170489585044 x0 + 2.585244792522 x1 + 1.292622396261 x2
      + 160.304470909967 x3 + 80.152235454983 x4 + 40.076117727492 x5 + [
      67.861971814980 x0^2 + 67.861971814980 x0*x1 + 33.930985907490 x0*x2
      + 30.107612840642 x0*x3 + 15.053806420321 x0*x4 + 7.526903210160 x0*x5
      + 16.965492953745 x1^2 + 16.965492953745 x1*x2 + 15.053806420321 x1*x3
      + 7.526903210160 x1*x4 + 3.763451605080 x1*x5 + 4.241373238436 x2^2
      + 7.526903210160 x2*x3 + 3.763451605080 x2*x4 + 1.881725802540 x2*x5
      + 49.830664981027 x3^2 + 49.830664981027 x3*x4 + 24.915332490514 x3*x5
      + 12.457666245257 x4^2 + 12.457666245257 x4*x5 + 3.114416561314 x5^2 ]/2
Subject To
 c0: 4 x0 + 2 x1 + x2 + 4 x3 + 2 x4 + x5 = 7

Bounds
 0 <= x0 <= 1
 0 <= x1 <= 1
 0 <= x2 <= 1
 0 <= x3 <= 1
 0 <= x4 <= 1
 0 <= x5 <= 1

Binaries
 x0 x1 x2 x3 x4 x5
End
